p edge 106 2772
e 1 5
e 1 10
e 1 11
e 1 22
e 1 23
e 1 25
e 1 26
e 1 27
e 1 31
e 1 33
e 1 37
e 1 38
e 1 39
e 1 40
e 1 41
e 1 43
e 1 46
e 1 48
e 1 49
e 1 50
e 1 51
e 1 53
e 1 55
e 1 59
e 1 60
e 1 61
e 1 62
e 1 65
e 1 66
e 1 67
e 1 68
e 1 69
e 1 71
e 1 72
e 1 74
e 1 76
e 1 77
e 1 79
e 1 80
e 1 84
e 1 86
e 1 88
e 1 89
e 1 93
e 1 94
e 1 97
e 1 98
e 1 99
e 1 100
e 1 102
e 1 103
e 1 104
e 1 105
e 2 3
e 2 5
e 2 7
e 2 8
e 2 9
e 2 11
e 2 13
e 2 14
e 2 15
e 2 16
e 2 17
e 2 19
e 2 21
e 2 22
e 2 26
e 2 28
e 2 31
e 2 33
e 2 34
e 2 35
e 2 37
e 2 39
e 2 40
e 2 43
e 2 45
e 2 47
e 2 50
e 2 51
e 2 52
e 2 53
e 2 54
e 2 56
e 2 59
e 2 62
e 2 63
e 2 65
e 2 69
e 2 71
e 2 73
e 2 74
e 2 75
e 2 80
e 2 82
e 2 84
e 2 86
e 2 87
e 2 88
e 2 89
e 2 92
e 2 99
e 2 100
e 2 101
e 2 102
e 2 103
e 2 104
e 2 105
e 3 4
e 3 7
e 3 8
e 3 11
e 3 13
e 3 14
e 3 15
e 3 17
e 3 18
e 3 19
e 3 21
e 3 22
e 3 23
e 3 25
e 3 26
e 3 27
e 3 34
e 3 38
e 3 41
e 3 43
e 3 44
e 3 47
e 3 51
e 3 52
e 3 53
e 3 55
e 3 57
e 3 60
e 3 62
e 3 63
e 3 64
e 3 67
e 3 68
e 3 71
e 3 72
e 3 73
e 3 74
e 3 75
e 3 77
e 3 79
e 3 81
e 3 82
e 3 83
e 3 87
e 3 88
e 3 89
e 3 91
e 3 93
e 3 94
e 3 95
e 3 97
e 3 98
e 3 99
e 3 105
e 4 7
e 4 8
e 4 9
e 4 13
e 4 15
e 4 17
e 4 18
e 4 19
e 4 20
e 4 24
e 4 28
e 4 32
e 4 33
e 4 39
e 4 41
e 4 43
e 4 44
e 4 45
e 4 47
e 4 49
e 4 51
e 4 52
e 4 54
e 4 55
e 4 56
e 4 58
e 4 61
e 4 63
e 4 64
e 4 66
e 4 67
e 4 69
e 4 72
e 4 78
e 4 79
e 4 80
e 4 81
e 4 82
e 4 83
e 4 86
e 4 88
e 4 89
e 4 91
e 4 92
e 4 95
e 4 97
e 4 98
e 4 99
e 4 100
e 4 101
e 4 102
e 4 104
e 5 6
e 5 7
e 5 8
e 5 10
e 5 13
e 5 16
e 5 17
e 5 19
e 5 20
e 5 21
e 5 22
e 5 23
e 5 25
e 5 26
e 5 29
e 5 34
e 5 39
e 5 44
e 5 45
e 5 47
e 5 51
e 5 53
e 5 56
e 5 57
e 5 59
e 5 62
e 5 65
e 5 67
e 5 70
e 5 71
e 5 74
e 5 75
e 5 76
e 5 78
e 5 83
e 5 84
e 5 85
e 5 88
e 5 93
e 5 94
e 5 96
e 5 99
e 5 104
e 5 105
e 5 106
e 6 7
e 6 11
e 6 12
e 6 14
e 6 18
e 6 19
e 6 20
e 6 27
e 6 29
e 6 31
e 6 33
e 6 34
e 6 39
e 6 42
e 6 43
e 6 46
e 6 47
e 6 48
e 6 57
e 6 60
e 6 61
e 6 63
e 6 64
e 6 67
e 6 68
e 6 69
e 6 70
e 6 72
e 6 73
e 6 74
e 6 75
e 6 77
e 6 78
e 6 79
e 6 84
e 6 85
e 6 87
e 6 89
e 6 91
e 6 92
e 6 95
e 6 96
e 6 97
e 6 99
e 6 100
e 6 105
e 6 106
e 7 10
e 7 11
e 7 13
e 7 14
e 7 15
e 7 16
e 7 19
e 7 20
e 7 21
e 7 23
e 7 24
e 7 25
e 7 26
e 7 27
e 7 32
e 7 33
e 7 37
e 7 38
e 7 39
e 7 40
e 7 41
e 7 42
e 7 43
e 7 45
e 7 46
e 7 47
e 7 50
e 7 51
e 7 52
e 7 54
e 7 55
e 7 57
e 7 59
e 7 61
e 7 62
e 7 63
e 7 64
e 7 65
e 7 66
e 7 73
e 7 76
e 7 79
e 7 80
e 7 81
e 7 83
e 7 86
e 7 87
e 7 89
e 7 91
e 7 92
e 7 98
e 7 99
e 7 103
e 7 105
e 7 106
e 8 9
e 8 11
e 8 14
e 8 16
e 8 17
e 8 18
e 8 21
e 8 22
e 8 23
e 8 24
e 8 25
e 8 27
e 8 28
e 8 29
e 8 35
e 8 38
e 8 39
e 8 41
e 8 42
e 8 45
e 8 46
e 8 47
e 8 48
e 8 54
e 8 55
e 8 56
e 8 59
e 8 61
e 8 62
e 8 65
e 8 66
e 8 67
e 8 68
e 8 69
e 8 75
e 8 79
e 8 81
e 8 84
e 8 86
e 8 93
e 8 97
e 8 99
e 8 101
e 8 102
e 8 104
e 9 10
e 9 11
e 9 12
e 9 13
e 9 14
e 9 21
e 9 23
e 9 24
e 9 25
e 9 26
e 9 27
e 9 28
e 9 30
e 9 32
e 9 33
e 9 34
e 9 35
e 9 36
e 9 37
e 9 42
e 9 43
e 9 44
e 9 48
e 9 49
e 9 52
e 9 53
e 9 55
e 9 59
e 9 60
e 9 66
e 9 69
e 9 72
e 9 73
e 9 74
e 9 76
e 9 77
e 9 78
e 9 81
e 9 86
e 9 88
e 9 92
e 9 93
e 9 94
e 9 102
e 9 104
e 10 12
e 10 13
e 10 14
e 10 16
e 10 20
e 10 21
e 10 22
e 10 23
e 10 24
e 10 25
e 10 26
e 10 27
e 10 28
e 10 33
e 10 35
e 10 37
e 10 38
e 10 39
e 10 42
e 10 43
e 10 46
e 10 49
e 10 50
e 10 51
e 10 54
e 10 56
e 10 57
e 10 58
e 10 59
e 10 62
e 10 66
e 10 71
e 10 73
e 10 75
e 10 78
e 10 80
e 10 83
e 10 86
e 10 87
e 10 90
e 10 91
e 10 93
e 10 94
e 10 96
e 10 97
e 10 100
e 10 101
e 10 103
e 10 105
e 11 12
e 11 14
e 11 19
e 11 20
e 11 22
e 11 24
e 11 25
e 11 26
e 11 27
e 11 30
e 11 33
e 11 34
e 11 35
e 11 38
e 11 39
e 11 41
e 11 43
e 11 49
e 11 51
e 11 52
e 11 54
e 11 57
e 11 61
e 11 62
e 11 63
e 11 66
e 11 68
e 11 69
e 11 71
e 11 72
e 11 73
e 11 74
e 11 77
e 11 84
e 11 86
e 11 87
e 11 90
e 11 92
e 11 93
e 11 94
e 11 96
e 11 97
e 11 98
e 11 99
e 11 100
e 11 101
e 11 104
e 12 15
e 12 18
e 12 19
e 12 20
e 12 21
e 12 22
e 12 24
e 12 25
e 12 28
e 12 29
e 12 30
e 12 31
e 12 35
e 12 36
e 12 39
e 12 44
e 12 47
e 12 49
e 12 50
e 12 51
e 12 52
e 12 54
e 12 55
e 12 59
e 12 61
e 12 63
e 12 64
e 12 65
e 12 70
e 12 71
e 12 73
e 12 74
e 12 77
e 12 78
e 12 79
e 12 80
e 12 81
e 12 82
e 12 83
e 12 84
e 12 85
e 12 86
e 12 87
e 12 90
e 12 91
e 12 93
e 12 94
e 12 95
e 12 96
e 12 98
e 12 101
e 12 102
e 12 104
e 12 106
e 13 17
e 13 18
e 13 22
e 13 23
e 13 26
e 13 29
e 13 31
e 13 33
e 13 34
e 13 35
e 13 36
e 13 38
e 13 39
e 13 41
e 13 42
e 13 44
e 13 46
e 13 47
e 13 48
e 13 49
e 13 50
e 13 54
e 13 56
e 13 58
e 13 60
e 13 62
e 13 63
e 13 65
e 13 69
e 13 73
e 13 74
e 13 76
e 13 78
e 13 84
e 13 85
e 13 86
e 13 90
e 13 91
e 13 97
e 13 98
e 13 101
e 13 102
e 13 103
e 13 104
e 13 106
e 14 18
e 14 19
e 14 20
e 14 22
e 14 23
e 14 24
e 14 28
e 14 29
e 14 31
e 14 33
e 14 34
e 14 37
e 14 38
e 14 40
e 14 41
e 14 44
e 14 46
e 14 47
e 14 48
e 14 49
e 14 50
e 14 51
e 14 52
e 14 55
e 14 56
e 14 59
e 14 62
e 14 63
e 14 64
e 14 66
e 14 70
e 14 75
e 14 77
e 14 79
e 14 80
e 14 82
e 14 83
e 14 86
e 14 88
e 14 89
e 14 91
e 14 92
e 14 93
e 14 94
e 14 97
e 14 99
e 14 100
e 14 103
e 15 20
e 15 21
e 15 24
e 15 25
e 15 29
e 15 32
e 15 35
e 15 36
e 15 38
e 15 39
e 15 40
e 15 41
e 15 42
e 15 43
e 15 44
e 15 46
e 15 47
e 15 50
e 15 52
e 15 57
e 15 58
e 15 60
e 15 62
e 15 65
e 15 66
e 15 68
e 15 70
e 15 74
e 15 75
e 15 78
e 15 80
e 15 81
e 15 82
e 15 83
e 15 85
e 15 89
e 15 90
e 15 99
e 15 100
e 15 103
e 15 105
e 15 106
e 16 19
e 16 22
e 16 26
e 16 27
e 16 28
e 16 31
e 16 35
e 16 41
e 16 44
e 16 45
e 16 46
e 16 50
e 16 53
e 16 55
e 16 56
e 16 57
e 16 64
e 16 65
e 16 68
e 16 70
e 16 71
e 16 72
e 16 76
e 16 77
e 16 79
e 16 80
e 16 83
e 16 86
e 16 90
e 16 91
e 16 95
e 16 97
e 16 98
e 16 99
e 16 104
e 16 106
e 17 22
e 17 24
e 17 29
e 17 30
e 17 34
e 17 38
e 17 40
e 17 42
e 17 45
e 17 48
e 17 49
e 17 53
e 17 54
e 17 55
e 17 59
e 17 60
e 17 61
e 17 66
e 17 67
e 17 69
e 17 72
e 17 74
e 17 75
e 17 77
e 17 91
e 17 92
e 17 94
e 17 96
e 17 97
e 17 98
e 17 104
e 17 106
e 18 19
e 18 22
e 18 23
e 18 24
e 18 31
e 18 34
e 18 37
e 18 39
e 18 43
e 18 44
e 18 48
e 18 49
e 18 50
e 18 51
e 18 52
e 18 57
e 18 59
e 18 66
e 18 67
e 18 68
e 18 69
e 18 70
e 18 77
e 18 80
e 18 81
e 18 82
e 18 85
e 18 86
e 18 87
e 18 93
e 18 95
e 18 99
e 18 100
e 18 101
e 18 103
e 18 104
e 18 105
e 18 106
e 19 21
e 19 22
e 19 23
e 19 24
e 19 25
e 19 28
e 19 32
e 19 33
e 19 36
e 19 37
e 19 39
e 19 41
e 19 42
e 19 44
e 19 46
e 19 47
e 19 48
e 19 50
e 19 52
e 19 55
e 19 57
e 19 58
e 19 61
e 19 63
e 19 65
e 19 67
e 19 69
e 19 71
e 19 72
e 19 74
e 19 75
e 19 79
e 19 82
e 19 84
e 19 86
e 19 87
e 19 88
e 19 90
e 19 92
e 19 93
e 19 94
e 19 98
e 19 102
e 19 103
e 19 106
e 20 21
e 20 23
e 20 24
e 20 26
e 20 27
e 20 28
e 20 31
e 20 32
e 20 33
e 20 34
e 20 35
e 20 36
e 20 37
e 20 38
e 20 39
e 20 41
e 20 42
e 20 43
e 20 45
e 20 49
e 20 50
e 20 51
e 20 53
e 20 55
e 20 57
e 20 60
e 20 61
e 20 63
e 20 65
e 20 66
e 20 67
e 20 68
e 20 70
e 20 72
e 20 73
e 20 74
e 20 75
e 20 76
e 20 83
e 20 88
e 20 89
e 20 90
e 20 94
e 20 97
e 20 98
e 20 99
e 20 101
e 20 103
e 20 106
e 21 23
e 21 25
e 21 26
e 21 33
e 21 35
e 21 37
e 21 38
e 21 40
e 21 41
e 21 43
e 21 45
e 21 46
e 21 48
e 21 49
e 21 51
e 21 52
e 21 54
e 21 55
e 21 56
e 21 57
e 21 59
e 21 60
e 21 61
e 21 65
e 21 66
e 21 67
e 21 68
e 21 70
e 21 71
e 21 72
e 21 75
e 21 76
e 21 77
e 21 78
e 21 79
e 21 86
e 21 88
e 21 89
e 21 92
e 21 93
e 21 94
e 21 102
e 21 103
e 21 106
e 22 24
e 22 25
e 22 26
e 22 27
e 22 29
e 22 32
e 22 33
e 22 35
e 22 36
e 22 37
e 22 40
e 22 41
e 22 43
e 22 44
e 22 45
e 22 46
e 22 48
e 22 49
e 22 50
e 22 53
e 22 55
e 22 59
e 22 61
e 22 64
e 22 65
e 22 66
e 22 67
e 22 69
e 22 71
e 22 74
e 22 75
e 22 78
e 22 79
e 22 81
e 22 83
e 22 84
e 22 85
e 22 86
e 22 87
e 22 88
e 22 92
e 22 94
e 22 95
e 22 98
e 22 99
e 22 101
e 22 102
e 22 104
e 23 24
e 23 28
e 23 29
e 23 30
e 23 31
e 23 35
e 23 37
e 23 39
e 23 40
e 23 42
e 23 43
e 23 45
e 23 47
e 23 49
e 23 51
e 23 52
e 23 53
e 23 55
e 23 57
e 23 60
e 23 62
e 23 63
e 23 64
e 23 66
e 23 67
e 23 69
e 23 77
e 23 80
e 23 81
e 23 82
e 23 84
e 23 85
e 23 87
e 23 88
e 23 92
e 23 94
e 23 96
e 23 101
e 23 102
e 23 104
e 24 25
e 24 27
e 24 28
e 24 29
e 24 30
e 24 31
e 24 32
e 24 33
e 24 34
e 24 37
e 24 38
e 24 40
e 24 43
e 24 45
e 24 46
e 24 47
e 24 50
e 24 52
e 24 54
e 24 55
e 24 60
e 24 61
e 24 63
e 24 64
e 24 65
e 24 67
e 24 68
e 24 73
e 24 78
e 24 81
e 24 83
e 24 84
e 24 86
e 24 87
e 24 91
e 24 94
e 24 95
e 24 96
e 24 103
e 24 104
e 24 105
e 24 106
e 25 26
e 25 27
e 25 31
e 25 34
e 25 39
e 25 41
e 25 43
e 25 45
e 25 47
e 25 48
e 25 51
e 25 52
e 25 54
e 25 55
e 25 59
e 25 60
e 25 61
e 25 62
e 25 64
e 25 65
e 25 67
e 25 68
e 25 70
e 25 72
e 25 79
e 25 81
e 25 82
e 25 83
e 25 84
e 25 85
e 25 87
e 25 88
e 25 89
e 25 90
e 25 93
e 25 98
e 25 102
e 26 27
e 26 28
e 26 29
e 26 30
e 26 31
e 26 38
e 26 39
e 26 41
e 26 42
e 26 45
e 26 47
e 26 50
e 26 51
e 26 52
e 26 53
e 26 57
e 26 59
e 26 60
e 26 61
e 26 64
e 26 67
e 26 70
e 26 73
e 26 78
e 26 83
e 26 87
e 26 90
e 26 91
e 26 93
e 26 96
e 26 98
e 26 99
e 26 100
e 26 101
e 26 104
e 26 105
e 26 106
e 27 29
e 27 30
e 27 31
e 27 32
e 27 33
e 27 36
e 27 37
e 27 38
e 27 40
e 27 41
e 27 42
e 27 43
e 27 44
e 27 49
e 27 50
e 27 52
e 27 55
e 27 58
e 27 59
e 27 60
e 27 64
e 27 67
e 27 68
e 27 69
e 27 71
e 27 72
e 27 75
e 27 78
e 27 79
e 27 81
e 27 82
e 27 83
e 27 84
e 27 86
e 27 87
e 27 89
e 27 90
e 27 91
e 27 92
e 27 93
e 27 94
e 27 97
e 27 99
e 27 101
e 27 103
e 27 104
e 27 105
e 27 106
e 28 32
e 28 35
e 28 37
e 28 38
e 28 39
e 28 40
e 28 43
e 28 45
e 28 49
e 28 50
e 28 51
e 28 62
e 28 63
e 28 65
e 28 67
e 28 70
e 28 71
e 28 73
e 28 74
e 28 75
e 28 76
e 28 79
e 28 80
e 28 85
e 28 88
e 28 90
e 28 92
e 28 96
e 28 98
e 28 104
e 28 105
e 29 30
e 29 35
e 29 38
e 29 40
e 29 41
e 29 42
e 29 43
e 29 46
e 29 47
e 29 50
e 29 51
e 29 52
e 29 53
e 29 54
e 29 56
e 29 57
e 29 58
e 29 59
e 29 60
e 29 62
e 29 64
e 29 66
e 29 68
e 29 69
e 29 70
e 29 72
e 29 76
e 29 77
e 29 78
e 29 80
e 29 82
e 29 85
e 29 86
e 29 88
e 29 89
e 29 90
e 29 92
e 29 94
e 29 95
e 29 97
e 29 98
e 29 99
e 29 101
e 29 103
e 29 105
e 30 33
e 30 34
e 30 35
e 30 36
e 30 38
e 30 39
e 30 42
e 30 44
e 30 45
e 30 46
e 30 47
e 30 48
e 30 49
e 30 52
e 30 53
e 30 54
e 30 56
e 30 57
e 30 59
e 30 61
e 30 62
e 30 64
e 30 65
e 30 66
e 30 68
e 30 69
e 30 70
e 30 71
e 30 75
e 30 76
e 30 77
e 30 78
e 30 80
e 30 82
e 30 84
e 30 85
e 30 87
e 30 88
e 30 91
e 30 92
e 30 93
e 30 94
e 30 95
e 30 96
e 30 97
e 30 99
e 30 100
e 30 102
e 30 103
e 31 32
e 31 36
e 31 37
e 31 39
e 31 40
e 31 41
e 31 46
e 31 47
e 31 50
e 31 51
e 31 52
e 31 53
e 31 56
e 31 59
e 31 61
e 31 62
e 31 64
e 31 71
e 31 74
e 31 75
e 31 77
e 31 79
e 31 81
e 31 84
e 31 86
e 31 87
e 31 89
e 31 91
e 31 92
e 31 94
e 31 95
e 31 97
e 31 98
e 31 101
e 31 105
e 32 34
e 32 40
e 32 42
e 32 47
e 32 50
e 32 51
e 32 53
e 32 54
e 32 55
e 32 56
e 32 58
e 32 61
e 32 62
e 32 63
e 32 66
e 32 70
e 32 71
e 32 75
e 32 77
e 32 80
e 32 82
e 32 83
e 32 84
e 32 85
e 32 86
e 32 87
e 32 88
e 32 89
e 32 93
e 32 97
e 32 98
e 32 99
e 32 101
e 32 104
e 32 105
e 33 35
e 33 36
e 33 38
e 33 41
e 33 42
e 33 45
e 33 49
e 33 51
e 33 52
e 33 53
e 33 55
e 33 56
e 33 61
e 33 64
e 33 65
e 33 68
e 33 72
e 33 78
e 33 79
e 33 81
e 33 82
e 33 83
e 33 85
e 33 86
e 33 88
e 33 90
e 33 92
e 33 93
e 33 94
e 33 95
e 33 96
e 33 98
e 33 99
e 33 100
e 33 102
e 33 103
e 33 104
e 34 35
e 34 36
e 34 40
e 34 41
e 34 42
e 34 43
e 34 45
e 34 46
e 34 50
e 34 53
e 34 55
e 34 56
e 34 60
e 34 61
e 34 65
e 34 68
e 34 69
e 34 70
e 34 71
e 34 74
e 34 77
e 34 78
e 34 79
e 34 85
e 34 86
e 34 87
e 34 88
e 34 89
e 34 92
e 34 94
e 34 96
e 34 98
e 34 99
e 34 100
e 34 101
e 34 104
e 34 105
e 35 38
e 35 43
e 35 45
e 35 47
e 35 48
e 35 50
e 35 51
e 35 56
e 35 57
e 35 59
e 35 62
e 35 63
e 35 64
e 35 65
e 35 67
e 35 68
e 35 70
e 35 71
e 35 74
e 35 82
e 35 85
e 35 86
e 35 88
e 35 90
e 35 91
e 35 93
e 35 95
e 35 98
e 35 101
e 35 104
e 35 105
e 35 106
e 36 37
e 36 38
e 36 42
e 36 43
e 36 44
e 36 45
e 36 46
e 36 47
e 36 48
e 36 49
e 36 50
e 36 51
e 36 52
e 36 53
e 36 56
e 36 57
e 36 60
e 36 65
e 36 66
e 36 68
e 36 69
e 36 71
e 36 72
e 36 75
e 36 76
e 36 80
e 36 82
e 36 87
e 36 88
e 36 89
e 36 90
e 36 91
e 36 92
e 36 93
e 36 94
e 36 96
e 36 97
e 36 99
e 36 100
e 36 101
e 36 102
e 36 103
e 36 104
e 36 106
e 37 39
e 37 40
e 37 41
e 37 43
e 37 45
e 37 46
e 37 48
e 37 49
e 37 54
e 37 55
e 37 57
e 37 59
e 37 61
e 37 62
e 37 63
e 37 64
e 37 66
e 37 73
e 37 74
e 37 79
e 37 82
e 37 83
e 37 84
e 37 87
e 37 91
e 37 95
e 37 96
e 37 97
e 37 100
e 37 102
e 37 103
e 38 39
e 38 41
e 38 42
e 38 43
e 38 46
e 38 48
e 38 49
e 38 50
e 38 52
e 38 56
e 38 57
e 38 58
e 38 60
e 38 61
e 38 62
e 38 63
e 38 65
e 38 66
e 38 67
e 38 68
e 38 70
e 38 71
e 38 73
e 38 74
e 38 75
e 38 77
e 38 78
e 38 80
e 38 82
e 38 84
e 38 88
e 38 90
e 38 92
e 38 93
e 38 94
e 38 95
e 38 97
e 38 101
e 38 106
e 39 41
e 39 43
e 39 46
e 39 51
e 39 54
e 39 57
e 39 60
e 39 62
e 39 63
e 39 64
e 39 65
e 39 66
e 39 67
e 39 68
e 39 71
e 39 75
e 39 76
e 39 78
e 39 79
e 39 80
e 39 83
e 39 86
e 39 87
e 39 88
e 39 89
e 39 90
e 39 93
e 39 95
e 39 96
e 39 97
e 39 99
e 39 103
e 39 104
e 39 105
e 40 41
e 40 43
e 40 45
e 40 48
e 40 50
e 40 55
e 40 56
e 40 57
e 40 59
e 40 61
e 40 63
e 40 64
e 40 65
e 40 66
e 40 67
e 40 68
e 40 69
e 40 71
e 40 72
e 40 73
e 40 77
e 40 82
e 40 84
e 40 86
e 40 89
e 40 91
e 40 94
e 40 95
e 40 98
e 40 103
e 41 43
e 41 45
e 41 49
e 41 50
e 41 54
e 41 55
e 41 56
e 41 59
e 41 61
e 41 63
e 41 65
e 41 66
e 41 67
e 41 68
e 41 69
e 41 73
e 41 74
e 41 76
e 41 78
e 41 80
e 41 85
e 41 86
e 41 89
e 41 90
e 41 91
e 41 94
e 41 96
e 41 100
e 41 101
e 41 102
e 41 104
e 41 105
e 42 43
e 42 45
e 42 46
e 42 48
e 42 50
e 42 51
e 42 52
e 42 53
e 42 54
e 42 60
e 42 63
e 42 66
e 42 70
e 42 74
e 42 75
e 42 76
e 42 77
e 42 79
e 42 80
e 42 81
e 42 82
e 42 86
e 42 87
e 42 89
e 42 90
e 42 91
e 42 94
e 42 97
e 42 98
e 42 99
e 42 102
e 42 103
e 42 104
e 42 105
e 43 44
e 43 47
e 43 50
e 43 51
e 43 58
e 43 59
e 43 61
e 43 64
e 43 65
e 43 66
e 43 67
e 43 69
e 43 71
e 43 72
e 43 75
e 43 76
e 43 81
e 43 84
e 43 87
e 43 88
e 43 89
e 43 92
e 43 93
e 43 95
e 43 97
e 43 99
e 43 101
e 43 103
e 43 104
e 44 46
e 44 47
e 44 48
e 44 51
e 44 52
e 44 55
e 44 56
e 44 57
e 44 59
e 44 62
e 44 64
e 44 65
e 44 67
e 44 69
e 44 70
e 44 72
e 44 77
e 44 78
e 44 79
e 44 80
e 44 82
e 44 84
e 44 85
e 44 86
e 44 88
e 44 91
e 44 92
e 44 95
e 44 96
e 44 101
e 44 105
e 44 106
e 45 46
e 45 48
e 45 51
e 45 52
e 45 56
e 45 58
e 45 63
e 45 64
e 45 65
e 45 66
e 45 67
e 45 69
e 45 74
e 45 75
e 45 77
e 45 82
e 45 83
e 45 86
e 45 88
e 45 89
e 45 90
e 45 91
e 45 92
e 45 94
e 45 96
e 45 97
e 45 99
e 45 100
e 45 102
e 46 47
e 46 48
e 46 49
e 46 50
e 46 54
e 46 56
e 46 57
e 46 58
e 46 59
e 46 60
e 46 63
e 46 66
e 46 68
e 46 70
e 46 71
e 46 79
e 46 81
e 46 83
e 46 84
e 46 87
e 46 90
e 46 91
e 46 92
e 46 93
e 46 94
e 46 96
e 46 97
e 46 99
e 46 100
e 46 103
e 46 106
e 47 50
e 47 51
e 47 53
e 47 54
e 47 55
e 47 62
e 47 64
e 47 67
e 47 69
e 47 70
e 47 71
e 47 72
e 47 73
e 47 74
e 47 75
e 47 76
e 47 81
e 47 82
e 47 83
e 47 84
e 47 85
e 47 86
e 47 87
e 47 94
e 47 95
e 47 99
e 47 100
e 47 101
e 47 104
e 48 49
e 48 51
e 48 57
e 48 58
e 48 60
e 48 62
e 48 68
e 48 70
e 48 73
e 48 77
e 48 79
e 48 80
e 48 81
e 48 83
e 48 84
e 48 85
e 48 86
e 48 89
e 48 90
e 48 93
e 48 94
e 48 95
e 48 99
e 48 100
e 49 50
e 49 52
e 49 53
e 49 54
e 49 55
e 49 57
e 49 59
e 49 61
e 49 62
e 49 64
e 49 67
e 49 73
e 49 79
e 49 81
e 49 82
e 49 87
e 49 88
e 49 89
e 49 90
e 49 91
e 49 92
e 49 93
e 49 95
e 49 97
e 49 98
e 49 100
e 49 101
e 49 104
e 50 51
e 50 52
e 50 53
e 50 54
e 50 55
e 50 56
e 50 59
e 50 62
e 50 64
e 50 65
e 50 68
e 50 72
e 50 73
e 50 75
e 50 76
e 50 77
e 50 78
e 50 79
e 50 81
e 50 82
e 50 85
e 50 86
e 50 87
e 50 88
e 50 89
e 50 92
e 50 94
e 50 96
e 50 97
e 50 101
e 50 102
e 50 103
e 50 106
e 51 52
e 51 53
e 51 54
e 51 56
e 51 60
e 51 62
e 51 64
e 51 65
e 51 66
e 51 70
e 51 71
e 51 79
e 51 81
e 51 83
e 51 84
e 51 85
e 51 86
e 51 87
e 51 89
e 51 91
e 51 95
e 51 99
e 51 100
e 51 101
e 51 102
e 51 105
e 51 106
e 52 54
e 52 55
e 52 57
e 52 58
e 52 59
e 52 61
e 52 63
e 52 68
e 52 74
e 52 76
e 52 78
e 52 79
e 52 82
e 52 83
e 52 85
e 52 89
e 52 95
e 52 100
e 52 102
e 52 104
e 52 105
e 53 54
e 53 58
e 53 59
e 53 61
e 53 62
e 53 65
e 53 66
e 53 68
e 53 69
e 53 71
e 53 72
e 53 74
e 53 82
e 53 83
e 53 84
e 53 87
e 53 88
e 53 89
e 53 91
e 53 92
e 53 93
e 53 95
e 53 97
e 53 98
e 53 99
e 53 100
e 53 104
e 54 56
e 54 57
e 54 58
e 54 59
e 54 60
e 54 61
e 54 62
e 54 63
e 54 66
e 54 67
e 54 68
e 54 69
e 54 71
e 54 72
e 54 73
e 54 74
e 54 76
e 54 80
e 54 81
e 54 82
e 54 84
e 54 85
e 54 86
e 54 87
e 54 89
e 54 90
e 54 94
e 54 96
e 54 98
e 54 100
e 54 102
e 54 105
e 54 106
e 55 56
e 55 58
e 55 59
e 55 61
e 55 62
e 55 64
e 55 66
e 55 68
e 55 69
e 55 77
e 55 78
e 55 81
e 55 82
e 55 84
e 55 86
e 55 87
e 55 90
e 55 93
e 55 97
e 55 101
e 55 103
e 56 61
e 56 62
e 56 63
e 56 65
e 56 67
e 56 68
e 56 69
e 56 70
e 56 71
e 56 72
e 56 73
e 56 74
e 56 77
e 56 79
e 56 81
e 56 84
e 56 86
e 56 88
e 56 89
e 56 90
e 56 96
e 56 97
e 56 103
e 57 58
e 57 59
e 57 63
e 57 64
e 57 66
e 57 69
e 57 71
e 57 72
e 57 74
e 57 76
e 57 77
e 57 78
e 57 79
e 57 80
e 57 81
e 57 83
e 57 85
e 57 88
e 57 89
e 57 92
e 57 99
e 57 100
e 57 101
e 57 103
e 57 105
e 58 59
e 58 60
e 58 64
e 58 66
e 58 67
e 58 68
e 58 69
e 58 70
e 58 73
e 58 76
e 58 77
e 58 78
e 58 80
e 58 81
e 58 82
e 58 86
e 58 87
e 58 88
e 58 90
e 58 93
e 58 94
e 58 96
e 58 99
e 58 102
e 59 60
e 59 61
e 59 63
e 59 64
e 59 66
e 59 67
e 59 68
e 59 69
e 59 70
e 59 74
e 59 79
e 59 80
e 59 83
e 59 86
e 59 87
e 59 89
e 59 90
e 59 92
e 59 95
e 59 98
e 59 103
e 59 104
e 59 106
e 60 61
e 60 63
e 60 64
e 60 65
e 60 68
e 60 69
e 60 70
e 60 71
e 60 75
e 60 77
e 60 78
e 60 79
e 60 80
e 60 83
e 60 85
e 60 87
e 60 90
e 60 91
e 60 93
e 60 95
e 60 96
e 60 97
e 60 99
e 60 100
e 60 102
e 60 104
e 60 105
e 60 106
e 61 63
e 61 65
e 61 68
e 61 72
e 61 73
e 61 74
e 61 75
e 61 76
e 61 77
e 61 78
e 61 79
e 61 81
e 61 82
e 61 83
e 61 86
e 61 87
e 61 89
e 61 91
e 61 92
e 61 93
e 61 95
e 61 96
e 61 98
e 61 99
e 61 101
e 61 103
e 61 105
e 61 106
e 62 67
e 62 68
e 62 69
e 62 71
e 62 72
e 62 73
e 62 74
e 62 77
e 62 78
e 62 79
e 62 81
e 62 82
e 62 84
e 62 86
e 62 87
e 62 89
e 62 91
e 62 92
e 62 93
e 62 95
e 62 96
e 62 97
e 62 98
e 62 99
e 62 100
e 62 101
e 62 103
e 62 105
e 63 64
e 63 65
e 63 66
e 63 67
e 63 68
e 63 73
e 63 76
e 63 78
e 63 81
e 63 82
e 63 84
e 63 92
e 63 93
e 63 95
e 63 98
e 63 99
e 63 101
e 63 102
e 63 104
e 63 106
e 64 66
e 64 67
e 64 68
e 64 70
e 64 71
e 64 72
e 64 73
e 64 75
e 64 77
e 64 78
e 64 80
e 64 81
e 64 84
e 64 86
e 64 87
e 64 89
e 64 91
e 64 93
e 64 94
e 64 96
e 64 100
e 64 103
e 64 104
e 64 106
e 65 71
e 65 73
e 65 74
e 65 76
e 65 77
e 65 78
e 65 79
e 65 81
e 65 82
e 65 84
e 65 85
e 65 86
e 65 87
e 65 88
e 65 89
e 65 91
e 65 94
e 65 95
e 65 98
e 65 101
e 65 102
e 65 103
e 65 105
e 65 106
e 66 71
e 66 72
e 66 73
e 66 77
e 66 78
e 66 81
e 66 82
e 66 85
e 66 87
e 66 88
e 66 92
e 66 93
e 66 96
e 66 99
e 66 100
e 66 101
e 66 104
e 66 105
e 67 68
e 67 70
e 67 71
e 67 72
e 67 75
e 67 76
e 67 77
e 67 79
e 67 80
e 67 81
e 67 83
e 67 84
e 67 89
e 67 90
e 67 97
e 67 98
e 67 99
e 67 103
e 67 104
e 68 69
e 68 70
e 68 73
e 68 76
e 68 77
e 68 79
e 68 81
e 68 86
e 68 90
e 68 93
e 68 94
e 68 96
e 68 97
e 68 98
e 68 99
e 68 100
e 68 104
e 68 106
e 69 70
e 69 72
e 69 74
e 69 76
e 69 77
e 69 79
e 69 81
e 69 84
e 69 85
e 69 88
e 69 89
e 69 91
e 69 92
e 69 93
e 69 95
e 69 98
e 69 99
e 69 101
e 69 104
e 70 73
e 70 75
e 70 76
e 70 77
e 70 80
e 70 84
e 70 86
e 70 88
e 70 89
e 70 91
e 70 92
e 70 94
e 70 95
e 70 98
e 70 100
e 70 101
e 70 103
e 70 104
e 70 105
e 70 106
e 71 77
e 71 78
e 71 79
e 71 82
e 71 86
e 71 88
e 71 89
e 71 93
e 71 99
e 71 102
e 71 105
e 71 106
e 72 73
e 72 77
e 72 80
e 72 81
e 72 83
e 72 84
e 72 85
e 72 86
e 72 87
e 72 88
e 72 89
e 72 90
e 72 92
e 72 93
e 72 94
e 72 95
e 72 96
e 72 97
e 72 98
e 72 99
e 72 100
e 72 101
e 72 103
e 72 104
e 72 105
e 73 74
e 73 75
e 73 77
e 73 78
e 73 80
e 73 81
e 73 85
e 73 88
e 73 91
e 73 96
e 73 100
e 73 102
e 74 76
e 74 81
e 74 85
e 74 86
e 74 87
e 74 90
e 74 93
e 74 94
e 74 96
e 74 97
e 74 100
e 74 101
e 74 102
e 74 106
e 75 81
e 75 83
e 75 84
e 75 86
e 75 87
e 75 90
e 75 95
e 75 96
e 75 97
e 75 101
e 75 102
e 75 103
e 75 104
e 76 77
e 76 78
e 76 81
e 76 82
e 76 85
e 76 87
e 76 88
e 76 91
e 76 92
e 76 93
e 76 95
e 76 96
e 76 97
e 76 101
e 76 104
e 76 105
e 76 106
e 77 79
e 77 80
e 77 82
e 77 86
e 77 87
e 77 89
e 77 91
e 77 92
e 77 95
e 77 96
e 77 97
e 77 104
e 77 105
e 78 80
e 78 81
e 78 82
e 78 84
e 78 87
e 78 91
e 78 94
e 78 98
e 78 99
e 78 100
e 78 104
e 78 105
e 78 106
e 79 81
e 79 83
e 79 89
e 79 90
e 79 93
e 79 95
e 79 97
e 79 99
e 79 100
e 79 102
e 79 105
e 80 81
e 80 83
e 80 85
e 80 86
e 80 87
e 80 88
e 80 90
e 80 91
e 80 99
e 80 100
e 80 103
e 80 104
e 80 105
e 80 106
e 81 87
e 81 91
e 81 92
e 81 93
e 81 96
e 81 97
e 81 98
e 81 104
e 81 105
e 81 106
e 82 84
e 82 85
e 82 86
e 82 93
e 82 94
e 82 96
e 82 97
e 82 99
e 82 100
e 82 101
e 82 102
e 82 105
e 83 84
e 83 88
e 83 94
e 83 99
e 83 100
e 83 101
e 83 102
e 83 103
e 83 105
e 83 106
e 84 85
e 84 87
e 84 92
e 84 94
e 84 95
e 84 98
e 84 99
e 84 102
e 84 103
e 84 106
e 85 87
e 85 89
e 85 90
e 85 93
e 85 96
e 85 103
e 85 104
e 85 106
e 86 87
e 86 89
e 86 90
e 86 91
e 86 96
e 86 97
e 86 100
e 86 102
e 87 88
e 87 89
e 87 91
e 87 92
e 87 97
e 87 99
e 87 101
e 87 105
e 88 91
e 88 92
e 88 93
e 88 94
e 88 100
e 88 101
e 88 103
e 88 104
e 88 105
e 88 106
e 89 91
e 89 93
e 89 96
e 89 97
e 89 99
e 89 101
e 89 105
e 89 106
e 90 95
e 90 97
e 90 99
e 90 100
e 90 102
e 90 103
e 91 93
e 91 94
e 91 95
e 91 100
e 91 102
e 91 106
e 92 95
e 92 96
e 92 99
e 92 102
e 92 103
e 92 104
e 92 105
e 92 106
e 93 97
e 93 98
e 93 100
e 93 101
e 93 103
e 93 106
e 94 101
e 94 102
e 94 106
e 95 97
e 95 99
e 95 101
e 95 102
e 95 104
e 96 98
e 96 99
e 96 102
e 97 98
e 97 102
e 97 103
e 97 105
e 97 106
e 98 103
e 99 101
e 99 103
e 99 105
e 99 106
e 100 102
e 100 103
e 100 106
e 101 103
e 101 105
e 101 106
e 102 103
e 102 106
e 103 104
e 103 105
e 103 106
e 104 105
e 104 106
e 105 106
